data/CVRPLIB/Vrp-Set-XML100/instances/XML100_1313_27.vrp
NAME : XML100_1313_27
COMMENT : Generated by Queiroga, Sadykov, Uchoa, and Vidal (2021)
TYPE : CVRP
DIMENSION : 101
EDGE_WEIGHT_TYPE : EUC_2D
CAPACITY : 9
NODE_COORD_SECTION
1    533  436 
2    382  128 
3    590  185 
4    529  532 
5    59   775 
6    866  99  
7    906  833 
8    449  490 
9    923  45  
10   940  886 
11   755  447 
12   133  998 
13   903  961 
14   936  469 
15   872  794 
16   74   910 
17   622  462 
18   345  213 
19   924  876 
20   113  937 
21   363  99  
22   115  997 
23   90   197 
24   641  500 
25   375  65  
26   927  355 
27   907  518 
28   842  830 
29   946  844 
30   380  587 
31   982  979 
32   22   743 
33   923  395 
34   534  799 
35   955  822 
36   561  443 
37   89   478 
38   57   521 
39   469  112 
40   863  287 
41   866  934 
42   442  560 
43   741  477 
44   668  467 
45   573  59  
46   827  897 
47   88   221 
48   307  381 
49   433  10  
50   119  683 
51   436  1   
52   818  401 
53   314  75  
54   49   108 
55   680  965 
56   390  115 
57   133  964 
58   137  995 
59   364  64  
60   119  988 
61   352  24  
62   650  604 
63   183  141 
64   502  244 
65   450  684 
66   463  79  
67   680  47  
68   494  7   
69   211  878 
70   194  458 
71   156  588 
72   362  700 
73   726  2   
74   145  521 
75   797  875 
76   509  118 
77   685  906 
78   842  287 
79   349  83  
80   659  472 
81   434  841 
82   634  422 
83   644  459 
84   40   916 
85   533  795 
86   859  888 
87   695  53  
88   685  573 
89   238  130 
90   300  35  
91   933  579 
92   55   339 
93   243  892 
94   771  843 
95   686  769 
96   841  805 
97   375  653 
98   719  47  
99   960  28  
100  23   773 
101  343  265 
DEMAND_SECTION
1    0   
2    1   
3    1   
4    1   
5    1   
6    1   
7    1   
8    1   
9    1   
10   1   
11   1   
12   1   
13   1   
14   1   
15   1   
16   1   
17   1   
18   1   
19   1   
20   1   
21   1   
22   1   
23   1   
24   1   
25   1   
26   1   
27   1   
28   1   
29   1   
30   1   
31   1   
32   1   
33   1   
34   1   
35   1   
36   1   
37   1   
38   1   
39   1   
40   1   
41   1   
42   1   
43   1   
44   1   
45   1   
46   1   
47   1   
48   1   
49   1   
50   1   
51   1   
52   1   
53   1   
54   1   
55   1   
56   1   
57   1   
58   1   
59   1   
60   1   
61   1   
62   1   
63   1   
64   1   
65   1   
66   1   
67   1   
68   1   
69   1   
70   1   
71   1   
72   1   
73   1   
74   1   
75   1   
76   1   
77   1   
78   1   
79   1   
80   1   
81   1   
82   1   
83   1   
84   1   
85   1   
86   1   
87   1   
88   1   
89   1   
90   1   
91   1   
92   1   
93   1   
94   1   
95   1   
96   1   
97   1   
98   1   
99   1   
100  1   
101  1   
DEPOT_SECTION
1
-1
EOF
