data/CVRPLIB/Vrp-Set-XML100/solutions/XML100_1313_27.sol
Route #1: 68 56 57 11 21 59 19 15 83
Route #2: 35
Route #3: 2 44 67 50 48 65 38 75 63
Route #4: 100 17 88 62 53 22 46 91 47
Route #5: 81 10 51 25 32 13 26 90 42
Route #6: 55 24 58 60 89 52 78 20 1
Route #7: 70 49 4 99 31 37 36 73 69
Route #8: 66 86 97 72 98 8 5 39 77
Route #9: 16 82 43 79 23 87 61 3 7
Route #10: 41 29 96 71 92 80 33 84 64
Route #11: 95 27 6 18 85 45 74 93 94
Route #12: 14 34 28 9 30 12 40 54 76
Cost 13741
